logs/drand/feas/drand-07-110-1.lp
\ LP format - for model browsing. Use MPS format to capture full model detail.
Minimize
  p0 + p1 + p2 + p3 + p4 + p5 + p6
Subject To
 R0: x0,1_11 + x0,2_11 + x0,3_11 + x0,4_11 + x0,5_11 + x0,6_11 + x1,2_11
   + x1,3_11 + x1,4_11 + x1,5_11 + x1,6_11 + x2,3_11 + x2,4_11 + x2,5_11
   + x2,6_11 + x3,4_11 + x3,5_11 + x3,6_11 + x4,5_11 + x4,6_11 + x5,6_11
   = 1
 R1: x0,1_50 + x0,2_50 + x0,3_50 + x0,4_50 + x0,5_50 + x0,6_50 + x1,2_50
   + x1,3_50 + x1,4_50 + x1,5_50 + x1,6_50 + x2,3_50 + x2,4_50 + x2,5_50
   + x2,6_50 + x3,4_50 + x3,5_50 + x3,6_50 + x4,5_50 + x4,6_50 + x5,6_50
   = 1
 R2: x0,1_53 + x0,2_53 + x0,3_53 + x0,4_53 + x0,5_53 + x0,6_53 + x1,2_53
   + x1,3_53 + x1,4_53 + x1,5_53 + x1,6_53 + x2,3_53 + x2,4_53 + x2,5_53
   + x2,6_53 + x3,4_53 + x3,5_53 + x3,6_53 + x4,5_53 + x4,6_53 + x5,6_53
   = 1
 R3: x0,1_59 + x0,2_59 + x0,3_59 + x0,4_59 + x0,5_59 + x0,6_59 + x1,2_59
   + x1,3_59 + x1,4_59 + x1,5_59 + x1,6_59 + x2,3_59 + x2,4_59 + x2,5_59
   + x2,6_59 + x3,4_59 + x3,5_59 + x3,6_59 + x4,5_59 + x4,6_59 + x5,6_59
   = 1
 R4: x0,1_65 + x0,2_65 + x0,3_65 + x0,4_65 + x0,5_65 + x0,6_65 + x1,2_65
   + x1,3_65 + x1,4_65 + x1,5_65 + x1,6_65 + x2,3_65 + x2,4_65 + x2,5_65
   + x2,6_65 + x3,4_65 + x3,5_65 + x3,6_65 + x4,5_65 + x4,6_65 + x5,6_65
   = 1
 R5: x0,1_69 + x0,2_69 + x0,3_69 + x0,4_69 + x0,5_69 + x0,6_69 + x1,2_69
   + x1,3_69 + x1,4_69 + x1,5_69 + x1,6_69 + x2,3_69 + x2,4_69 + x2,5_69
   + x2,6_69 + x3,4_69 + x3,5_69 + x3,6_69 + x4,5_69 + x4,6_69 + x5,6_69
   = 1
 R6: x0,1_81 + x0,2_81 + x0,3_81 + x0,4_81 + x0,5_81 + x0,6_81 + x1,2_81
   + x1,3_81 + x1,4_81 + x1,5_81 + x1,6_81 + x2,3_81 + x2,4_81 + x2,5_81
   + x2,6_81 + x3,4_81 + x3,5_81 + x3,6_81 + x4,5_81 + x4,6_81 + x5,6_81
   = 1
 R7: x0,1_11 + x0,1_50 + x0,1_53 + x0,1_59 + x0,1_65 + x0,1_69 + x0,1_81
   <= 1
 R8: x0,2_11 + x0,2_50 + x0,2_53 + x0,2_59 + x0,2_65 + x0,2_69 + x0,2_81
   <= 1
 R9: x0,3_11 + x0,3_50 + x0,3_53 + x0,3_59 + x0,3_65 + x0,3_69 + x0,3_81
   <= 1
 R10: x0,4_11 + x0,4_50 + x0,4_53 + x0,4_59 + x0,4_65 + x0,4_69 + x0,4_81
   <= 1
 R11: x0,5_11 + x0,5_50 + x0,5_53 + x0,5_59 + x0,5_65 + x0,5_69 + x0,5_81
   <= 1
 R12: x0,6_11 + x0,6_50 + x0,6_53 + x0,6_59 + x0,6_65 + x0,6_69 + x0,6_81
   <= 1
 R13: x1,2_11 + x1,2_50 + x1,2_53 + x1,2_59 + x1,2_65 + x1,2_69 + x1,2_81
   <= 1
 R14: x1,3_11 + x1,3_50 + x1,3_53 + x1,3_59 + x1,3_65 + x1,3_69 + x1,3_81
   <= 1
 R15: x1,4_11 + x1,4_50 + x1,4_53 + x1,4_59 + x1,4_65 + x1,4_69 + x1,4_81
   <= 1
 R16: x1,5_11 + x1,5_50 + x1,5_53 + x1,5_59 + x1,5_65 + x1,5_69 + x1,5_81
   <= 1
 R17: x1,6_11 + x1,6_50 + x1,6_53 + x1,6_59 + x1,6_65 + x1,6_69 + x1,6_81
   <= 1
 R18: x2,3_11 + x2,3_50 + x2,3_53 + x2,3_59 + x2,3_65 + x2,3_69 + x2,3_81
   <= 1
 R19: x2,4_11 + x2,4_50 + x2,4_53 + x2,4_59 + x2,4_65 + x2,4_69 + x2,4_81
   <= 1
 R20: x2,5_11 + x2,5_50 + x2,5_53 + x2,5_59 + x2,5_65 + x2,5_69 + x2,5_81
   <= 1
 R21: x2,6_11 + x2,6_50 + x2,6_53 + x2,6_59 + x2,6_65 + x2,6_69 + x2,6_81
   <= 1
 R22: x3,4_11 + x3,4_50 + x3,4_53 + x3,4_59 + x3,4_65 + x3,4_69 + x3,4_81
   <= 1
 R23: x3,5_11 + x3,5_50 + x3,5_53 + x3,5_59 + x3,5_65 + x3,5_69 + x3,5_81
   <= 1
 R24: x3,6_11 + x3,6_50 + x3,6_53 + x3,6_59 + x3,6_65 + x3,6_69 + x3,6_81
   <= 1
 R25: x4,5_11 + x4,5_50 + x4,5_53 + x4,5_59 + x4,5_65 + x4,5_69 + x4,5_81
   <= 1
 R26: x4,6_11 + x4,6_50 + x4,6_53 + x4,6_59 + x4,6_65 + x4,6_69 + x4,6_81
   <= 1
 R27: x5,6_11 + x5,6_50 + x5,6_53 + x5,6_59 + x5,6_65 + x5,6_69 + x5,6_81
   <= 1
 R28: p0 - p1 <= -1
 R29: - 11 x0,1_11 - p0 + p1 >= 0
 R30: 388 x0,1_11 - p0 + p1 <= 399
 R31: - 50 x0,1_50 - p0 + p1 >= 0
 R32: 388 x0,1_50 - p0 + p1 <= 438
 R33: - 53 x0,1_53 - p0 + p1 >= 0
 R34: 388 x0,1_53 - p0 + p1 <= 441
 R35: - 59 x0,1_59 - p0 + p1 >= 0
 R36: 388 x0,1_59 - p0 + p1 <= 447
 R37: - 65 x0,1_65 - p0 + p1 >= 0
 R38: 388 x0,1_65 - p0 + p1 <= 453
 R39: - 69 x0,1_69 - p0 + p1 >= 0
 R40: 388 x0,1_69 - p0 + p1 <= 457
 R41: - 81 x0,1_81 - p0 + p1 >= 0
 R42: 388 x0,1_81 - p0 + p1 <= 469
 R43: p0 - p2 <= -1
 R44: - 11 x0,2_11 - p0 + p2 >= 0
 R45: 388 x0,2_11 - p0 + p2 <= 399
 R46: - 50 x0,2_50 - p0 + p2 >= 0
 R47: 388 x0,2_50 - p0 + p2 <= 438
 R48: - 53 x0,2_53 - p0 + p2 >= 0
 R49: 388 x0,2_53 - p0 + p2 <= 441
 R50: - 59 x0,2_59 - p0 + p2 >= 0
 R51: 388 x0,2_59 - p0 + p2 <= 447
 R52: - 65 x0,2_65 - p0 + p2 >= 0
 R53: 388 x0,2_65 - p0 + p2 <= 453
 R54: - 69 x0,2_69 - p0 + p2 >= 0
 R55: 388 x0,2_69 - p0 + p2 <= 457
 R56: - 81 x0,2_81 - p0 + p2 >= 0
 R57: 388 x0,2_81 - p0 + p2 <= 469
 R58: p0 - p3 <= -1
 R59: - 11 x0,3_11 - p0 + p3 >= 0
 R60: 388 x0,3_11 - p0 + p3 <= 399
 R61: - 50 x0,3_50 - p0 + p3 >= 0
 R62: 388 x0,3_50 - p0 + p3 <= 438
 R63: - 53 x0,3_53 - p0 + p3 >= 0
 R64: 388 x0,3_53 - p0 + p3 <= 441
 R65: - 59 x0,3_59 - p0 + p3 >= 0
 R66: 388 x0,3_59 - p0 + p3 <= 447
 R67: - 65 x0,3_65 - p0 + p3 >= 0
 R68: 388 x0,3_65 - p0 + p3 <= 453
 R69: - 69 x0,3_69 - p0 + p3 >= 0
 R70: 388 x0,3_69 - p0 + p3 <= 457
 R71: - 81 x0,3_81 - p0 + p3 >= 0
 R72: 388 x0,3_81 - p0 + p3 <= 469
 R73: p0 - p4 <= -1
 R74: - 11 x0,4_11 - p0 + p4 >= 0
 R75: 388 x0,4_11 - p0 + p4 <= 399
 R76: - 50 x0,4_50 - p0 + p4 >= 0
 R77: 388 x0,4_50 - p0 + p4 <= 438
 R78: - 53 x0,4_53 - p0 + p4 >= 0
 R79: 388 x0,4_53 - p0 + p4 <= 441
 R80: - 59 x0,4_59 - p0 + p4 >= 0
 R81: 388 x0,4_59 - p0 + p4 <= 447
 R82: - 65 x0,4_65 - p0 + p4 >= 0
 R83: 388 x0,4_65 - p0 + p4 <= 453
 R84: - 69 x0,4_69 - p0 + p4 >= 0
 R85: 388 x0,4_69 - p0 + p4 <= 457
 R86: - 81 x0,4_81 - p0 + p4 >= 0
 R87: 388 x0,4_81 - p0 + p4 <= 469
 R88: p0 - p5 <= -1
 R89: - 11 x0,5_11 - p0 + p5 >= 0
 R90: 388 x0,5_11 - p0 + p5 <= 399
 R91: - 50 x0,5_50 - p0 + p5 >= 0
 R92: 388 x0,5_50 - p0 + p5 <= 438
 R93: - 53 x0,5_53 - p0 + p5 >= 0
 R94: 388 x0,5_53 - p0 + p5 <= 441
 R95: - 59 x0,5_59 - p0 + p5 >= 0
 R96: 388 x0,5_59 - p0 + p5 <= 447
 R97: - 65 x0,5_65 - p0 + p5 >= 0
 R98: 388 x0,5_65 - p0 + p5 <= 453
 R99: - 69 x0,5_69 - p0 + p5 >= 0
 R100: 388 x0,5_69 - p0 + p5 <= 457
 R101: - 81 x0,5_81 - p0 + p5 >= 0
 R102: 388 x0,5_81 - p0 + p5 <= 469
 R103: p0 - p6 <= -1
 R104: - 11 x0,6_11 - p0 + p6 >= 0
 R105: 388 x0,6_11 - p0 + p6 <= 399
 R106: - 50 x0,6_50 - p0 + p6 >= 0
 R107: 388 x0,6_50 - p0 + p6 <= 438
 R108: - 53 x0,6_53 - p0 + p6 >= 0
 R109: 388 x0,6_53 - p0 + p6 <= 441
 R110: - 59 x0,6_59 - p0 + p6 >= 0
 R111: 388 x0,6_59 - p0 + p6 <= 447
 R112: - 65 x0,6_65 - p0 + p6 >= 0
 R113: 388 x0,6_65 - p0 + p6 <= 453
 R114: - 69 x0,6_69 - p0 + p6 >= 0
 R115: 388 x0,6_69 - p0 + p6 <= 457
 R116: - 81 x0,6_81 - p0 + p6 >= 0
 R117: 388 x0,6_81 - p0 + p6 <= 469
 R118: p1 - p2 <= -1
 R119: - 11 x1,2_11 - p1 + p2 >= 0
 R120: 388 x1,2_11 - p1 + p2 <= 399
 R121: - 50 x1,2_50 - p1 + p2 >= 0
 R122: 388 x1,2_50 - p1 + p2 <= 438
 R123: - 53 x1,2_53 - p1 + p2 >= 0
 R124: 388 x1,2_53 - p1 + p2 <= 441
 R125: - 59 x1,2_59 - p1 + p2 >= 0
 R126: 388 x1,2_59 - p1 + p2 <= 447
 R127: - 65 x1,2_65 - p1 + p2 >= 0
 R128: 388 x1,2_65 - p1 + p2 <= 453
 R129: - 69 x1,2_69 - p1 + p2 >= 0
 R130: 388 x1,2_69 - p1 + p2 <= 457
 R131: - 81 x1,2_81 - p1 + p2 >= 0
 R132: 388 x1,2_81 - p1 + p2 <= 469
 R133: p1 - p3 <= -1
 R134: - 11 x1,3_11 - p1 + p3 >= 0
 R135: 388 x1,3_11 - p1 + p3 <= 399
 R136: - 50 x1,3_50 - p1 + p3 >= 0
 R137: 388 x1,3_50 - p1 + p3 <= 438
 R138: - 53 x1,3_53 - p1 + p3 >= 0
 R139: 388 x1,3_53 - p1 + p3 <= 441
 R140: - 59 x1,3_59 - p1 + p3 >= 0
 R141: 388 x1,3_59 - p1 + p3 <= 447
 R142: - 65 x1,3_65 - p1 + p3 >= 0
 R143: 388 x1,3_65 - p1 + p3 <= 453
 R144: - 69 x1,3_69 - p1 + p3 >= 0
 R145: 388 x1,3_69 - p1 + p3 <= 457
 R146: - 81 x1,3_81 - p1 + p3 >= 0
 R147: 388 x1,3_81 - p1 + p3 <= 469
 R148: p1 - p4 <= -1
 R149: - 11 x1,4_11 - p1 + p4 >= 0
 R150: 388 x1,4_11 - p1 + p4 <= 399
 R151: - 50 x1,4_50 - p1 + p4 >= 0
 R152: 388 x1,4_50 - p1 + p4 <= 438
 R153: - 53 x1,4_53 - p1 + p4 >= 0
 R154: 388 x1,4_53 - p1 + p4 <= 441
 R155: - 59 x1,4_59 - p1 + p4 >= 0
 R156: 388 x1,4_59 - p1 + p4 <= 447
 R157: - 65 x1,4_65 - p1 + p4 >= 0
 R158: 388 x1,4_65 - p1 + p4 <= 453
 R159: - 69 x1,4_69 - p1 + p4 >= 0
 R160: 388 x1,4_69 - p1 + p4 <= 457
 R161: - 81 x1,4_81 - p1 + p4 >= 0
 R162: 388 x1,4_81 - p1 + p4 <= 469
 R163: p1 - p5 <= -1
 R164: - 11 x1,5_11 - p1 + p5 >= 0
 R165: 388 x1,5_11 - p1 + p5 <= 399
 R166: - 50 x1,5_50 - p1 + p5 >= 0
 R167: 388 x1,5_50 - p1 + p5 <= 438
 R168: - 53 x1,5_53 - p1 + p5 >= 0
 R169: 388 x1,5_53 - p1 + p5 <= 441
 R170: - 59 x1,5_59 - p1 + p5 >= 0
 R171: 388 x1,5_59 - p1 + p5 <= 447
 R172: - 65 x1,5_65 - p1 + p5 >= 0
 R173: 388 x1,5_65 - p1 + p5 <= 453
 R174: - 69 x1,5_69 - p1 + p5 >= 0
 R175: 388 x1,5_69 - p1 + p5 <= 457
 R176: - 81 x1,5_81 - p1 + p5 >= 0
 R177: 388 x1,5_81 - p1 + p5 <= 469
 R178: p1 - p6 <= -1
 R179: - 11 x1,6_11 - p1 + p6 >= 0
 R180: 388 x1,6_11 - p1 + p6 <= 399
 R181: - 50 x1,6_50 - p1 + p6 >= 0
 R182: 388 x1,6_50 - p1 + p6 <= 438
 R183: - 53 x1,6_53 - p1 + p6 >= 0
 R184: 388 x1,6_53 - p1 + p6 <= 441
 R185: - 59 x1,6_59 - p1 + p6 >= 0
 R186: 388 x1,6_59 - p1 + p6 <= 447
 R187: - 65 x1,6_65 - p1 + p6 >= 0
 R188: 388 x1,6_65 - p1 + p6 <= 453
 R189: - 69 x1,6_69 - p1 + p6 >= 0
 R190: 388 x1,6_69 - p1 + p6 <= 457
 R191: - 81 x1,6_81 - p1 + p6 >= 0
 R192: 388 x1,6_81 - p1 + p6 <= 469
 R193: p2 - p3 <= -1
 R194: - 11 x2,3_11 - p2 + p3 >= 0
 R195: 388 x2,3_11 - p2 + p3 <= 399
 R196: - 50 x2,3_50 - p2 + p3 >= 0
 R197: 388 x2,3_50 - p2 + p3 <= 438
 R198: - 53 x2,3_53 - p2 + p3 >= 0
 R199: 388 x2,3_53 - p2 + p3 <= 441
 R200: - 59 x2,3_59 - p2 + p3 >= 0
 R201: 388 x2,3_59 - p2 + p3 <= 447
 R202: - 65 x2,3_65 - p2 + p3 >= 0
 R203: 388 x2,3_65 - p2 + p3 <= 453
 R204: - 69 x2,3_69 - p2 + p3 >= 0
 R205: 388 x2,3_69 - p2 + p3 <= 457
 R206: - 81 x2,3_81 - p2 + p3 >= 0
 R207: 388 x2,3_81 - p2 + p3 <= 469
 R208: p2 - p4 <= -1
 R209: - 11 x2,4_11 - p2 + p4 >= 0
 R210: 388 x2,4_11 - p2 + p4 <= 399
 R211: - 50 x2,4_50 - p2 + p4 >= 0
 R212: 388 x2,4_50 - p2 + p4 <= 438
 R213: - 53 x2,4_53 - p2 + p4 >= 0
 R214: 388 x2,4_53 - p2 + p4 <= 441
 R215: - 59 x2,4_59 - p2 + p4 >= 0
 R216: 388 x2,4_59 - p2 + p4 <= 447
 R217: - 65 x2,4_65 - p2 + p4 >= 0
 R218: 388 x2,4_65 - p2 + p4 <= 453
 R219: - 69 x2,4_69 - p2 + p4 >= 0
 R220: 388 x2,4_69 - p2 + p4 <= 457
 R221: - 81 x2,4_81 - p2 + p4 >= 0
 R222: 388 x2,4_81 - p2 + p4 <= 469
 R223: p2 - p5 <= -1
 R224: - 11 x2,5_11 - p2 + p5 >= 0
 R225: 388 x2,5_11 - p2 + p5 <= 399
 R226: - 50 x2,5_50 - p2 + p5 >= 0
 R227: 388 x2,5_50 - p2 + p5 <= 438
 R228: - 53 x2,5_53 - p2 + p5 >= 0
 R229: 388 x2,5_53 - p2 + p5 <= 441
 R230: - 59 x2,5_59 - p2 + p5 >= 0
 R231: 388 x2,5_59 - p2 + p5 <= 447
 R232: - 65 x2,5_65 - p2 + p5 >= 0
 R233: 388 x2,5_65 - p2 + p5 <= 453
 R234: - 69 x2,5_69 - p2 + p5 >= 0
 R235: 388 x2,5_69 - p2 + p5 <= 457
 R236: - 81 x2,5_81 - p2 + p5 >= 0
 R237: 388 x2,5_81 - p2 + p5 <= 469
 R238: p2 - p6 <= -1
 R239: - 11 x2,6_11 - p2 + p6 >= 0
 R240: 388 x2,6_11 - p2 + p6 <= 399
 R241: - 50 x2,6_50 - p2 + p6 >= 0
 R242: 388 x2,6_50 - p2 + p6 <= 438
 R243: - 53 x2,6_53 - p2 + p6 >= 0
 R244: 388 x2,6_53 - p2 + p6 <= 441
 R245: - 59 x2,6_59 - p2 + p6 >= 0
 R246: 388 x2,6_59 - p2 + p6 <= 447
 R247: - 65 x2,6_65 - p2 + p6 >= 0
 R248: 388 x2,6_65 - p2 + p6 <= 453
 R249: - 69 x2,6_69 - p2 + p6 >= 0
 R250: 388 x2,6_69 - p2 + p6 <= 457
 R251: - 81 x2,6_81 - p2 + p6 >= 0
 R252: 388 x2,6_81 - p2 + p6 <= 469
 R253: p3 - p4 <= -1
 R254: - 11 x3,4_11 - p3 + p4 >= 0
 R255: 388 x3,4_11 - p3 + p4 <= 399
 R256: - 50 x3,4_50 - p3 + p4 >= 0
 R257: 388 x3,4_50 - p3 + p4 <= 438
 R258: - 53 x3,4_53 - p3 + p4 >= 0
 R259: 388 x3,4_53 - p3 + p4 <= 441
 R260: - 59 x3,4_59 - p3 + p4 >= 0
 R261: 388 x3,4_59 - p3 + p4 <= 447
 R262: - 65 x3,4_65 - p3 + p4 >= 0
 R263: 388 x3,4_65 - p3 + p4 <= 453
 R264: - 69 x3,4_69 - p3 + p4 >= 0
 R265: 388 x3,4_69 - p3 + p4 <= 457
 R266: - 81 x3,4_81 - p3 + p4 >= 0
 R267: 388 x3,4_81 - p3 + p4 <= 469
 R268: p3 - p5 <= -1
 R269: - 11 x3,5_11 - p3 + p5 >= 0
 R270: 388 x3,5_11 - p3 + p5 <= 399
 R271: - 50 x3,5_50 - p3 + p5 >= 0
 R272: 388 x3,5_50 - p3 + p5 <= 438
 R273: - 53 x3,5_53 - p3 + p5 >= 0
 R274: 388 x3,5_53 - p3 + p5 <= 441
 R275: - 59 x3,5_59 - p3 + p5 >= 0
 R276: 388 x3,5_59 - p3 + p5 <= 447
 R277: - 65 x3,5_65 - p3 + p5 >= 0
 R278: 388 x3,5_65 - p3 + p5 <= 453
 R279: - 69 x3,5_69 - p3 + p5 >= 0
 R280: 388 x3,5_69 - p3 + p5 <= 457
 R281: - 81 x3,5_81 - p3 + p5 >= 0
 R282: 388 x3,5_81 - p3 + p5 <= 469
 R283: p3 - p6 <= -1
 R284: - 11 x3,6_11 - p3 + p6 >= 0
 R285: 388 x3,6_11 - p3 + p6 <= 399
 R286: - 50 x3,6_50 - p3 + p6 >= 0
 R287: 388 x3,6_50 - p3 + p6 <= 438
 R288: - 53 x3,6_53 - p3 + p6 >= 0
 R289: 388 x3,6_53 - p3 + p6 <= 441
 R290: - 59 x3,6_59 - p3 + p6 >= 0
 R291: 388 x3,6_59 - p3 + p6 <= 447
 R292: - 65 x3,6_65 - p3 + p6 >= 0
 R293: 388 x3,6_65 - p3 + p6 <= 453
 R294: - 69 x3,6_69 - p3 + p6 >= 0
 R295: 388 x3,6_69 - p3 + p6 <= 457
 R296: - 81 x3,6_81 - p3 + p6 >= 0
 R297: 388 x3,6_81 - p3 + p6 <= 469
 R298: p4 - p5 <= -1
 R299: - 11 x4,5_11 - p4 + p5 >= 0
 R300: 388 x4,5_11 - p4 + p5 <= 399
 R301: - 50 x4,5_50 - p4 + p5 >= 0
 R302: 388 x4,5_50 - p4 + p5 <= 438
 R303: - 53 x4,5_53 - p4 + p5 >= 0
 R304: 388 x4,5_53 - p4 + p5 <= 441
 R305: - 59 x4,5_59 - p4 + p5 >= 0
 R306: 388 x4,5_59 - p4 + p5 <= 447
 R307: - 65 x4,5_65 - p4 + p5 >= 0
 R308: 388 x4,5_65 - p4 + p5 <= 453
 R309: - 69 x4,5_69 - p4 + p5 >= 0
 R310: 388 x4,5_69 - p4 + p5 <= 457
 R311: - 81 x4,5_81 - p4 + p5 >= 0
 R312: 388 x4,5_81 - p4 + p5 <= 469
 R313: p4 - p6 <= -1
 R314: - 11 x4,6_11 - p4 + p6 >= 0
 R315: 388 x4,6_11 - p4 + p6 <= 399
 R316: - 50 x4,6_50 - p4 + p6 >= 0
 R317: 388 x4,6_50 - p4 + p6 <= 438
 R318: - 53 x4,6_53 - p4 + p6 >= 0
 R319: 388 x4,6_53 - p4 + p6 <= 441
 R320: - 59 x4,6_59 - p4 + p6 >= 0
 R321: 388 x4,6_59 - p4 + p6 <= 447
 R322: - 65 x4,6_65 - p4 + p6 >= 0
 R323: 388 x4,6_65 - p4 + p6 <= 453
 R324: - 69 x4,6_69 - p4 + p6 >= 0
 R325: 388 x4,6_69 - p4 + p6 <= 457
 R326: - 81 x4,6_81 - p4 + p6 >= 0
 R327: 388 x4,6_81 - p4 + p6 <= 469
 R328: p5 - p6 <= -1
 R329: - 11 x5,6_11 - p5 + p6 >= 0
 R330: 388 x5,6_11 - p5 + p6 <= 399
 R331: - 50 x5,6_50 - p5 + p6 >= 0
 R332: 388 x5,6_50 - p5 + p6 <= 438
 R333: - 53 x5,6_53 - p5 + p6 >= 0
 R334: 388 x5,6_53 - p5 + p6 <= 441
 R335: - 59 x5,6_59 - p5 + p6 >= 0
 R336: 388 x5,6_59 - p5 + p6 <= 447
 R337: - 65 x5,6_65 - p5 + p6 >= 0
 R338: 388 x5,6_65 - p5 + p6 <= 453
 R339: - 69 x5,6_69 - p5 + p6 >= 0
 R340: 388 x5,6_69 - p5 + p6 <= 457
 R341: - 81 x5,6_81 - p5 + p6 >= 0
 R342: 388 x5,6_81 - p5 + p6 <= 469
Bounds
Binaries
 x0,1_11 x0,1_50 x0,1_53 x0,1_59 x0,1_65 x0,1_69 x0,1_81 x0,2_11 x0,2_50
 x0,2_53 x0,2_59 x0,2_65 x0,2_69 x0,2_81 x0,3_11 x0,3_50 x0,3_53 x0,3_59
 x0,3_65 x0,3_69 x0,3_81 x0,4_11 x0,4_50 x0,4_53 x0,4_59 x0,4_65 x0,4_69
 x0,4_81 x0,5_11 x0,5_50 x0,5_53 x0,5_59 x0,5_65 x0,5_69 x0,5_81 x0,6_11
 x0,6_50 x0,6_53 x0,6_59 x0,6_65 x0,6_69 x0,6_81 x1,2_11 x1,2_50 x1,2_53
 x1,2_59 x1,2_65 x1,2_69 x1,2_81 x1,3_11 x1,3_50 x1,3_53 x1,3_59 x1,3_65
 x1,3_69 x1,3_81 x1,4_11 x1,4_50 x1,4_53 x1,4_59 x1,4_65 x1,4_69 x1,4_81
 x1,5_11 x1,5_50 x1,5_53 x1,5_59 x1,5_65 x1,5_69 x1,5_81 x1,6_11 x1,6_50
 x1,6_53 x1,6_59 x1,6_65 x1,6_69 x1,6_81 x2,3_11 x2,3_50 x2,3_53 x2,3_59
 x2,3_65 x2,3_69 x2,3_81 x2,4_11 x2,4_50 x2,4_53 x2,4_59 x2,4_65 x2,4_69
 x2,4_81 x2,5_11 x2,5_50 x2,5_53 x2,5_59 x2,5_65 x2,5_69 x2,5_81 x2,6_11
 x2,6_50 x2,6_53 x2,6_59 x2,6_65 x2,6_69 x2,6_81 x3,4_11 x3,4_50 x3,4_53
 x3,4_59 x3,4_65 x3,4_69 x3,4_81 x3,5_11 x3,5_50 x3,5_53 x3,5_59 x3,5_65
 x3,5_69 x3,5_81 x3,6_11 x3,6_50 x3,6_53 x3,6_59 x3,6_65 x3,6_69 x3,6_81
 x4,5_11 x4,5_50 x4,5_53 x4,5_59 x4,5_65 x4,5_69 x4,5_81 x4,6_11 x4,6_50
 x4,6_53 x4,6_59 x4,6_65 x4,6_69 x4,6_81 x5,6_11 x5,6_50 x5,6_53 x5,6_59
 x5,6_65 x5,6_69 x5,6_81
Generals
 p0 p1 p2 p3 p4 p5 p6
End
