logs/drand/feas/drand-07-110-1.sol
# Objective value = 180
x0,1_11 0
x0,1_50 0
x0,1_53 0
x0,1_59 0
x0,1_65 0
x0,1_69 0
x0,1_81 0
x0,2_11 0
x0,2_50 0
x0,2_53 0
x0,2_59 0
x0,2_65 0
x0,2_69 0
x0,2_81 0
x0,3_11 0
x0,3_50 0
x0,3_53 0
x0,3_59 0
x0,3_65 0
x0,3_69 0
x0,3_81 0
x0,4_11 0
x0,4_50 0
x0,4_53 0
x0,4_59 0
x0,4_65 0
x0,4_69 0
x0,4_81 0
x0,5_11 0
x0,5_50 0
x0,5_53 0
x0,5_59 0
x0,5_65 1
x0,5_69 0
x0,5_81 0
x0,6_11 0
x0,6_50 0
x0,6_53 0
x0,6_59 0
x0,6_65 0
x0,6_69 0
x0,6_81 1
x1,2_11 0
x1,2_50 0
x1,2_53 0
x1,2_59 0
x1,2_65 0
x1,2_69 0
x1,2_81 0
x1,3_11 1
x1,3_50 0
x1,3_53 0
x1,3_59 0
x1,3_65 0
x1,3_69 0
x1,3_81 0
x1,4_11 0
x1,4_50 0
x1,4_53 0
x1,4_59 0
x1,4_65 0
x1,4_69 0
x1,4_81 0
x1,5_11 0
x1,5_50 0
x1,5_53 0
x1,5_59 0
x1,5_65 0
x1,5_69 0
x1,5_81 0
x1,6_11 0
x1,6_50 0
x1,6_53 0
x1,6_59 0
x1,6_65 0
x1,6_69 0
x1,6_81 0
x2,3_11 0
x2,3_50 0
x2,3_53 0
x2,3_59 0
x2,3_65 0
x2,3_69 0
x2,3_81 0
x2,4_11 0
x2,4_50 0
x2,4_53 0
x2,4_59 0
x2,4_65 0
x2,4_69 0
x2,4_81 0
x2,5_11 0
x2,5_50 0
x2,5_53 0
x2,5_59 1
x2,5_65 0
x2,5_69 0
x2,5_81 0
x2,6_11 0
x2,6_50 0
x2,6_53 0
x2,6_59 0
x2,6_65 0
x2,6_69 0
x2,6_81 0
x3,4_11 0
x3,4_50 0
x3,4_53 0
x3,4_59 0
x3,4_65 0
x3,4_69 0
x3,4_81 0
x3,5_11 0
x3,5_50 0
x3,5_53 1
x3,5_59 0
x3,5_65 0
x3,5_69 0
x3,5_81 0
x3,6_11 0
x3,6_50 0
x3,6_53 0
x3,6_59 0
x3,6_65 0
x3,6_69 1
x3,6_81 0
x4,5_11 0
x4,5_50 1
x4,5_53 0
x4,5_59 0
x4,5_65 0
x4,5_69 0
x4,5_81 0
x4,6_11 0
x4,6_50 0
x4,6_53 0
x4,6_59 0
x4,6_65 0
x4,6_69 0
x4,6_81 0
x5,6_11 0
x5,6_50 0
x5,6_53 0
x5,6_59 0
x5,6_65 0
x5,6_69 0
x5,6_81 0
p0 0
p1 1
p2 6
p3 12
p4 15
p5 65
p6 81
