logs/drand/feas/drand-07-110-1.log

Gurobi 8.1.1 (win64) logging started 11/24/19 12:28:55

Changed value of parameter LogFile to logs/drand/feas/drand-07-110-1.log
   Prev: gurobi.log  Default: 
Changed value of parameter LogToConsole to 0
   Prev: 1  Min: 0  Max: 1  Default: 1
Changed value of parameter TimeLimit to 3600.0
   Prev: 1e+100  Min: 0.0  Max: 1e+100  Default: 1e+100
Optimize a model with 343 rows, 154 columns and 1218 nonzeros
Variable types: 0 continuous, 154 integer (147 binary)
Coefficient statistics:
  Matrix range     [1e+00, 4e+02]
  Objective range  [1e+00, 1e+00]
  Bounds range     [1e+00, 1e+00]
  RHS range        [1e+00, 5e+02]
Presolve time: 0.00s
Presolved: 343 rows, 154 columns, 1218 nonzeros
Variable types: 0 continuous, 154 integer (147 binary)

Root relaxation: objective 2.516667e+01, 144 iterations, 0.00 seconds

    Nodes    |    Current Node    |     Objective Bounds      |     Work
 Expl Unexpl |  Obj  Depth IntInf | Incumbent    BestBd   Gap | It/Node Time

     0     0   25.16667    0   97          -   25.16667      -     -    0s
     0     0   36.14869    0   61          -   36.14869      -     -    0s
     0     0   40.97630    0   46          -   40.97630      -     -    0s
     0     0   41.23434    0   45          -   41.23434      -     -    0s
     0     0   41.23434    0   44          -   41.23434      -     -    0s
H    0     0                     256.0000000   41.23434  83.9%     -    0s
H    0     0                     249.0000000   41.23434  83.4%     -    0s
     0     0   41.23434    0   44  249.00000   41.23434  83.4%     -    0s
     0     0   41.23434    0   45  249.00000   41.23434  83.4%     -    0s
     0     0   41.23434    0   44  249.00000   41.23434  83.4%     -    0s
H    0     0                     230.0000000   41.23434  82.1%     -    0s
H    0     0                     215.0000000   41.23434  80.8%     -    0s
     0     2   41.23434    0   42  215.00000   41.23434  80.8%     -    0s
H 1001   514                     212.0000000   99.00000  53.3%  10.8    0s
* 1272   382              51     206.0000000  145.00000  29.6%  10.3    0s
* 1280   343              55     190.0000000  145.00000  23.7%  10.2    0s
* 1590   161              50     183.0000000  151.00000  17.5%   9.3    0s
* 1591   139              50     180.0000000  151.00000  16.1%   9.3    0s

Explored 1842 nodes (17656 simplex iterations) in 0.58 seconds
Thread count was 4 (of 4 available processors)

Solution count 9: 180 183 190 ... 256

Optimal solution found (tolerance 1.00e-04)
Best objective 1.800000000000e+02, best bound 1.800000000000e+02, gap 0.0000%

Gurobi 8.1.1 (win64) logging started 11/24/19 12:28:55

Changed value of parameter LogFile to logs/drand/feas/drand-07-110-1.log
   Prev: gurobi.log  Default: 
Changed value of parameter LogToConsole to 0
   Prev: 1  Min: 0  Max: 1  Default: 1
Changed value of parameter TimeLimit to 3600.0
   Prev: 1e+100  Min: 0.0  Max: 1e+100  Default: 1e+100
Optimize a model with 247 rows, 111 columns and 870 nonzeros
Variable types: 0 continuous, 111 integer (105 binary)
Coefficient statistics:
  Matrix range     [1e+00, 4e+02]
  Objective range  [1e+00, 1e+00]
  Bounds range     [1e+00, 1e+00]
  RHS range        [1e+00, 5e+02]
Presolve time: 0.00s
Presolved: 247 rows, 111 columns, 870 nonzeros
Variable types: 0 continuous, 111 integer (105 binary)

Root relaxation: objective 2.420000e+01, 132 iterations, 0.00 seconds

    Nodes    |    Current Node    |     Objective Bounds      |     Work
 Expl Unexpl |  Obj  Depth IntInf | Incumbent    BestBd   Gap | It/Node Time

     0     0   24.20000    0   71          -   24.20000      -     -    0s
     0     0   37.21812    0   44          -   37.21812      -     -    0s
     0     0   48.09339    0   51          -   48.09339      -     -    0s
     0     0   48.09339    0   53          -   48.09339      -     -    0s
     0     0   48.52469    0   47          -   48.52469      -     -    0s
     0     0   48.52469    0   53          -   48.52469      -     -    0s
     0     0   48.83971    0   76          -   48.83971      -     -    0s
     0     0   48.88176    0   75          -   48.88176      -     -    0s
     0     0   48.88183    0   77          -   48.88183      -     -    0s
     0     0   49.04789    0   68          -   49.04789      -     -    0s
     0     0   49.05148    0   68          -   49.05148      -     -    0s
     0     0   49.09533    0   68          -   49.09533      -     -    0s
     0     0   49.09533    0   63          -   49.09533      -     -    0s
     0     2   49.09533    0   62          -   49.09533      -     -    0s
 71003 12994 infeasible   63               -  294.00000      -   3.9    5s
 171646  7784 infeasible   68               -  556.00000      -   3.5   10s

Cutting planes:
  Gomory: 9
  MIR: 8
  Flow cover: 61

Explored 195797 nodes (665647 simplex iterations) in 11.16 seconds
Thread count was 4 (of 4 available processors)

Solution count 0

Model is infeasible
Best objective -, best bound -, gap -
